out/bwp_9_6_1_lp.out
4
5 3    5 3
3 3    4 3
7 3    8 3
0 0    2 2
3 0    5 2
6 0    8 2
