out/bwp_9_6_1_lp.log
Tried aggregator 2 times.
MIP Presolve eliminated 10 rows and 5 columns.
MIP Presolve modified 72 coefficients.
Aggregator did 72 substitutions.
Reduced MIP has 330 rows, 303 columns, and 798 nonzeros.
Reduced MIP has 182 binaries, 13 generals, 0 SOSs, and 80 indicators.
Presolve time = 0.00 sec. (0.70 ticks)
Found incumbent of value 14.000000 after 0.01 sec. (1.23 ticks)
Probing fixed 12 vars, tightened 40 bounds.
Probing time = 0.00 sec. (0.98 ticks)
Tried aggregator 3 times.
MIP Presolve eliminated 19 rows and 18 columns.
MIP Presolve modified 76 coefficients.
Aggregator did 94 substitutions.
Reduced MIP has 219 rows, 191 columns, and 577 nonzeros.
Reduced MIP has 137 binaries, 54 generals, 0 SOSs, and 70 indicators.
Presolve time = 0.00 sec. (1.07 ticks)
Probing time = 0.00 sec. (0.42 ticks)
Tried aggregator 1 time.
MIP Presolve eliminated 2 rows and 0 columns.
Reduced MIP has 217 rows, 191 columns, and 573 nonzeros.
Reduced MIP has 137 binaries, 54 generals, 0 SOSs, and 70 indicators.
Presolve time = 0.00 sec. (0.29 ticks)
Probing time = 0.00 sec. (0.41 ticks)
Clique table members: 37.
MIP emphasis: balance optimality and feasibility.
MIP search method: dynamic search.
Parallel mode: deterministic, using up to 4 threads.
Root relaxation solution time = 0.00 sec. (0.50 ticks)

        Nodes                                         Cuts/
   Node  Left     Objective  IInf  Best Integer    Best Bound    ItCnt     Gap

*     0+    0                           14.0000        4.0000       70   71.43%
      0     0        4.0000    66       14.0000        4.0000       70   71.43%
      0     0        4.0000    26       14.0000       Cuts: 9       85   71.43%
      0     0        4.0000    39       14.0000      Cuts: 39      103   71.43%
      0     0        4.0000    23       14.0000       Cuts: 3      108   71.43%
      0     0        4.0000    18       14.0000      Cuts: 13      128   71.43%
      0     0        4.0000    27       14.0000      Cuts: 23      140   71.43%
*     0+    0                            4.0000        4.0000      140    0.00%
      0     0        cutoff              4.0000        4.0000      140    0.00%
Elapsed time = 0.05 sec. (17.71 ticks, tree = 0.00 MB, solutions = 2)

Clique cuts applied:  2
Cover cuts applied:  1
Implied bound cuts applied:  17
Mixed integer rounding cuts applied:  1
Zero-half cuts applied:  4
Gomory fractional cuts applied:  3

Root node processing (before b&c):
  Real time             =    0.06 sec. (17.73 ticks)
Parallel b&c, 4 threads:
  Real time             =    0.00 sec. (0.00 ticks)
  Sync time (average)   =    0.00 sec.
  Wait time (average)   =    0.00 sec.
                          ------------
Total (root+branch&cut) =    0.06 sec. (17.73 ticks)
